! B3LYP def2-SVP TightSCF D3BJ
* xyz 0 1
C       0.85121569      1.10496986      0.00356704
C      -0.52762488      1.28645919      0.11033577
C      -1.37884061      0.18148933      0.10676870
C      -0.85121573     -1.10496990     -0.00356714
C       0.52762487     -1.28645922     -0.11033610
C       1.37884055     -0.18148932     -0.10676911
H       1.51441076      1.96586861      0.00634678
H      -0.93870536      2.28875908      0.19630019
H      -2.45311620      0.32289050      0.18995406
H      -1.51441077     -1.96586870     -0.00634580
H       0.93870552     -2.28875909     -0.19630004
H       2.45311615     -0.32289033     -0.18995435
*